(declare-const |phi_x__VERIFIER_LA_old_tmp0:9| Int)
(declare-const |phi_x__VERIFIER_LA_tmp0:11| Int)
(declare-const |phi_x:12| Int)
(declare-const |phi___VERIFIER_LA_iterations0:10| Int)
(assert (and (= (+ (- |phi_x:12|) -268435440 268435439) 0)
               (= (+ (- |phi_x__VERIFIER_LA_tmp0:11|) 268435441) 0)
               (= (+ (- |phi___VERIFIER_LA_iterations0:10|) 134217720 1) 0)
               (= (+ (- |phi_x__VERIFIER_LA_old_tmp0:9|) 268435441) 0)
               (not (= (mod |phi_x:12| 2) 0))))
(check-sat)
